NAME : X_26_seed_123_id_15
TYPE : CVRP
DIMENSION : 219
EDGE_WEIGHT_TYPE : EUC_2D
CAPACITY : 3
NODE_COORD_SECTION
1	0	0
2	243	686
3	958	401
4	259	51
5	402	172
6	591	361
7	901	771
8	229	1
9	190	268
10	131	524
11	637	360
12	371	143
13	336	46
14	667	622
15	481	469
16	473	61
17	569	930
18	279	301
19	83	171
20	191	398
21	715	287
22	857	53
23	453	469
24	311	274
25	204	797
26	746	22
27	636	374
28	57	148
29	572	794
30	261	472
31	145	186
32	496	161
33	924	748
34	120	854
35	439	384
36	798	832
37	710	420
38	356	682
39	447	605
40	610	835
41	644	528
42	689	23
43	128	969
44	394	620
45	805	998
46	311	607
47	386	659
48	771	845
49	377	489
50	219	454
51	672	441
52	443	469
53	428	131
54	880	731
55	812	986
56	784	839
57	742	369
58	250	161
59	791	662
60	412	468
61	446	592
62	314	182
63	832	321
64	992	182
65	978	943
66	851	134
67	749	562
68	955	93
69	191	535
70	740	980
71	737	621
72	312	250
73	759	854
74	275	389
75	903	38
76	59	14
77	110	967
78	883	394
79	990	302
80	793	590
81	576	781
82	885	366
83	735	920
84	689	869
85	759	805
86	107	745
87	854	522
88	988	583
89	982	459
90	389	134
91	223	891
92	14	615
93	546	911
94	740	328
95	395	996
96	525	727
97	432	837
98	977	531
99	540	759
100	353	907
101	385	651
102	210	713
103	953	154
104	175	659
105	354	849
106	678	80
107	439	664
108	211	702
109	855	25
110	555	38
111	792	134
112	528	627
113	987	549
114	40	275
115	737	421
116	330	349
117	706	654
118	78	578
119	330	98
120	85	401
121	428	998
122	829	124
123	51	274
124	45	39
125	912	885
126	950	46
127	192	802
128	216	648
129	525	953
130	398	850
131	744	622
132	599	106
133	561	991
134	207	310
135	970	458
136	191	982
137	807	298
138	595	121
139	742	194
140	357	17
141	167	727
142	723	141
143	276	276
144	906	556
145	418	621
146	419	939
147	136	1
148	82	417
149	63	53
150	584	210
151	510	894
152	120	208
153	108	401
154	804	786
155	484	90
156	54	747
157	341	146
158	327	969
159	367	828
160	233	281
161	505	553
162	840	196
163	838	637
164	100	302
165	150	495
166	377	304
167	485	371
168	667	290
169	607	499
170	841	13
171	128	756
172	945	202
173	323	292
174	187	837
175	155	208
176	766	84
177	510	169
178	496	497
179	453	788
180	597	329
181	488	963
182	80	118
183	766	531
184	206	793
185	356	630
186	853	166
187	70	568
188	808	783
189	233	278
190	898	246
191	516	712
192	142	921
193	781	297
194	113	416
195	409	450
196	147	914
197	806	816
198	324	990
199	504	403
200	876	612
201	235	404
202	115	336
203	776	210
204	959	564
205	611	876
206	172	503
207	977	606
208	207	720
209	408	535
210	112	463
211	425	281
212	288	933
213	820	279
214	322	599
215	413	455
216	721	516
217	690	564
218	174	377
219	329	766
DEMAND_SECTION
1	0
2	1
3	1
4	1
5	1
6	1
7	1
8	1
9	1
10	1
11	1
12	1
13	1
14	1
15	1
16	1
17	1
18	1
19	1
20	1
21	1
22	1
23	1
24	1
25	1
26	1
27	1
28	1
29	1
30	1
31	1
32	1
33	1
34	1
35	1
36	1
37	1
38	1
39	1
40	1
41	1
42	1
43	1
44	1
45	1
46	1
47	1
48	1
49	1
50	1
51	1
52	1
53	1
54	1
55	1
56	1
57	1
58	1
59	1
60	1
61	1
62	1
63	1
64	1
65	1
66	1
67	1
68	1
69	1
70	1
71	1
72	1
73	1
74	1
75	1
76	1
77	1
78	1
79	1
80	1
81	1
82	1
83	1
84	1
85	1
86	1
87	1
88	1
89	1
90	1
91	1
92	1
93	1
94	1
95	1
96	1
97	1
98	1
99	1
100	1
101	1
102	1
103	1
104	1
105	1
106	1
107	1
108	1
109	1
110	1
111	1
112	1
113	1
114	1
115	1
116	1
117	1
118	1
119	1
120	1
121	1
122	1
123	1
124	1
125	1
126	1
127	1
128	1
129	1
130	1
131	1
132	1
133	1
134	1
135	1
136	1
137	1
138	1
139	1
140	1
141	1
142	1
143	1
144	1
145	1
146	1
147	1
148	1
149	1
150	1
151	1
152	1
153	1
154	1
155	1
156	1
157	1
158	1
159	1
160	1
161	1
162	1
163	1
164	1
165	1
166	1
167	1
168	1
169	1
170	1
171	1
172	1
173	1
174	1
175	1
176	1
177	1
178	1
179	1
180	1
181	1
182	1
183	1
184	1
185	1
186	1
187	1
188	1
189	1
190	1
191	1
192	1
193	1
194	1
195	1
196	1
197	1
198	1
199	1
200	1
201	1
202	1
203	1
204	1
205	1
206	1
207	1
208	1
209	1
210	1
211	1
212	1
213	1
214	1
215	1
216	1
217	1
218	1
219	1
DEPOT_SECTION
1
-1
EOF
